Version identifier: 22.1.0.0 | 2022-03-09 | 1a383f8ce
CPXPARAM_Threads                                 1
CPXPARAM_MIP_Strategy_VariableSelect             3
CPXPARAM_TimeLimit                               599.73730776399998
1 of 1 MIP starts provided solutions.
MIP start 'm1' defined initial solution with objective 93.0000.
Tried aggregator 1 time.
MIP Presolve eliminated 20 rows and 0 columns.
MIP Presolve modified 2 coefficients.
Reduced MIP has 999 rows, 2000 columns, and 22270 nonzeros.
Reduced MIP has 2000 binaries, 0 generals, 0 SOSs, and 0 indicators.
Presolve time = 0.01 sec. (11.12 ticks)
Probing time = 0.00 sec. (2.90 ticks)
Tried aggregator 1 time.
Detecting symmetries...
Reduced MIP has 999 rows, 2000 columns, and 22270 nonzeros.
Reduced MIP has 2000 binaries, 0 generals, 0 SOSs, and 0 indicators.
Presolve time = 0.02 sec. (12.66 ticks)
Probing time = 0.00 sec. (2.90 ticks)
Clique table members: 494.
MIP emphasis: balance optimality and feasibility.
MIP search method: dynamic search.
Parallel mode: none, using 1 thread.
Root relaxation solution time = 0.16 sec. (157.23 ticks)

        Nodes                                         Cuts/
   Node  Left     Objective  IInf  Best Integer    Best Bound    ItCnt     Gap

*     0+    0                           93.0000     2000.0000              --- 
      0     0      100.0000   431       93.0000      100.0000     1632    7.53%
      0     0      100.0000    86       93.0000    Cliques: 1     1794    7.53%
      0     0      100.0000   327       93.0000      Cuts: 66     2852    7.53%
*     0+    0                           97.0000      100.0000             3.09%
*     0+    0                           99.0000      100.0000             1.01%
      0     0        cutoff             99.0000      100.0000     2852    1.01%
Detecting symmetries...
      0     2      100.0000    24       99.0000      100.0000     2852    1.01%
Elapsed time = 2.84 sec. (2698.18 ticks, tree = 0.01 MB, solutions = 3)
      1     3      100.0000   399       99.0000      100.0000     6201    1.01%
      3     5      100.0000   174       99.0000      100.0000     8911    1.01%
      5     7      100.0000   153       99.0000      100.0000     9365    1.01%
      6     8      100.0000   143       99.0000      100.0000    11694    1.01%
      8    10      100.0000   370       99.0000      100.0000    13459    1.01%
     10    12      100.0000   285       99.0000      100.0000    15830    1.01%
     12    14      100.0000   314       99.0000      100.0000    17019    1.01%
     14    16      100.0000   313       99.0000      100.0000    18133    1.01%
     15    17      100.0000   206       99.0000      100.0000    19465    1.01%
     24    26      100.0000   141       99.0000      100.0000    22609    1.01%
Elapsed time = 7.83 sec. (7688.54 ticks, tree = 0.17 MB, solutions = 3)
*    30+    1                          100.0000      100.0000             0.00%

Clique cuts applied:  10
Zero-half cuts applied:  2

Root node processing (before b&c):
  Real time             =    2.83 sec. (2687.07 ticks)
Sequential b&c:
  Real time             =    5.79 sec. (5754.14 ticks)
                          ------------
Total (root+branch&cut) =    8.62 sec. (8441.21 ticks)
Primal:	100
Dual:	100
Status:	Optimal
Time:	8.6
Sequence:
	19
	5
	1
	17
	5
	12
	14
	10
	3
	19
	3
	16
	17
	2
	16
	14
	6
	5
	14
	1
	5
	17
	1
	5
	19
	0
	16
	15
	9
	5
	2
	14
	10
	12
	15
	8
	0
	13
	11
	12
	15
	8
	6
	13
	11
	1
	4
	8
	6
	13
	11
	1
	15
	8
	3
	13
	11
	12
	4
	8
	3
	13
	10
	9
	15
	16
	2
	14
	10
	0
	19
	5
	1
	17
	18
	6
	19
	5
	12
	17
	5
	1
	9
	10
	15
	9
	18
	4
	7
	5
	13
	9
	5
	4
	9
	16
	4
	2
	16
	19
